data/mip_solutions/furman_sahinidis/transshipment/14sp1_gurobi.sol
Elapsed time: 126.708924055
Nodes explored: 56641
Upper bound: 14.0
Lower bound: 14.0
y[0,0]=1
y[1,2]=1
y[1,4]=1
y[2,1]=1
y[2,5]=1
y[3,0]=1
y[3,3]=1
y[3,4]=1
y[4,2]=1
y[5,3]=1
y[5,5]=1
y[6,3]=1
y[6,6]=1
y[6,7]=1
q[0,0,2]=532.0
q[0,0,3]=133.0
q[0,0,4]=931.0
q[0,0,5]=532.0
q[0,0,6]=665.0
q[0,0,7]=120.0
q[0,0,8]=399.0
q[1,2,2]=272.0
q[1,2,3]=272.0
q[1,2,5]=401.2
q[1,4,3]=99.6
q[1,4,4]=1585.2
q[1,4,5]=906.0
q[1,4,6]=498.0
q[1,4,7]=1126.4
q[1,4,8]=844.8
q[1,4,9]=281.6
q[2,1,2]=130.2
q[2,1,3]=130.2
q[2,1,4]=911.4
q[2,1,5]=520.8
q[2,1,6]=651.0
q[2,1,7]=520.8
q[2,5,6]=255.6
q[3,0,7]=412.0
q[3,3,4]=888.0
q[3,3,5]=507.6
q[3,3,7]=159.55
q[3,3,11]=156.45
q[3,4,3]=182.0
q[3,4,4]=386.0
q[3,4,5]=220.4
q[3,4,6]=910.0
q[4,2,4]=1904.0
q[4,2,5]=686.8
q[4,2,6]=1360.0
q[5,3,5]=380.4
q[5,3,6]=664.5
q[5,3,7]=142.8
q[5,3,9]=142.8
q[5,3,10]=35.7
q[5,3,11]=287.55
q[5,5,5]=156.0
q[5,5,6]=524.4
q[5,5,7]=624.0
q[5,5,8]=468.0
q[5,5,9]=156.0
q[5,5,10]=156.0
q[6,3,6]=445.5
q[6,3,7]=585.65
q[6,3,8]=666.0
q[6,3,9]=79.2
q[6,3,10]=186.3
q[6,6,6]=261.0
q[6,6,7]=522.0
q[6,6,8]=391.5
q[6,6,9]=130.5
q[6,6,10]=130.5
q[6,6,11]=261.0
q[6,6,12]=130.5
q[6,7,13]=426.35
r[0,1]=368.0
r[0,2]=552.0
r[0,3]=940.0
r[0,4]=991.0
r[0,5]=1348.0
r[0,6]=1184.0
r[0,7]=519.0
r[0,8]=399.0
r[1,2]=241.8
r[1,3]=1178.8
r[1,4]=1049.0
r[1,5]=1156.4
r[1,6]=816.4
r[1,7]=1527.4
r[1,8]=1126.4
r[1,9]=281.6
r[2,3]=909.8
r[2,4]=987.6
r[2,5]=1532.2
r[2,6]=1427.4
r[2,7]=520.8
r[3,8]=156.45
r[3,9]=156.45
r[3,10]=156.45
r[3,11]=156.45
r[4,5]=71.4
r[4,6]=513.4
r[5,6]=230.4
r[5,9]=107.1
r[6,7]=653.5
r[6,8]=633.85
r[6,9]=392.35
r[6,10]=454.65
r[6,11]=409.85
r[6,12]=556.85
r[6,13]=426.35
