data/mip_solutions/furman_sahinidis/transshipment/14sp1_gurobi.log

Gurobi 6.5.2 (linux64) logging started Tue Jun  6 14:39:03 2017

Changed value of parameter LogFile to test_cases/mip_solutions/furman_sahinidis/transshipment/14sp1_gurobi.log
   Prev: gurobi.log  Default: 
Changed value of parameter Threads to 1
   Prev: 0  Min: 0  Max: 1024  Default: 0
Optimize a model with 270 rows, 947 columns and 2676 nonzeros
Coefficient statistics:
  Matrix range    [1e+00, 6e+03]
  Objective range [1e+00, 1e+00]
  Bounds range    [1e+00, 1e+00]
  RHS range       [1e+00, 2e+03]
Presolve removed 135 rows and 577 columns
Presolve time: 0.00s
Presolved: 135 rows, 370 columns, 973 nonzeros
Variable types: 314 continuous, 56 integer (56 binary)

Root relaxation: objective 9.058930e+00, 344 iterations, 0.01 seconds

    Nodes    |    Current Node    |     Objective Bounds      |     Work
 Expl Unexpl |  Obj  Depth IntInf | Incumbent    BestBd   Gap | It/Node Time

     0     0    9.05893    0    9          -    9.05893      -     -    0s
H    0     0                      14.0000000    9.05893  35.3%     -    0s
     0     0    9.22069    0   17   14.00000    9.22069  34.1%     -    0s
     0     0    9.30113    0   18   14.00000    9.30113  33.6%     -    0s
     0     0    9.37033    0   18   14.00000    9.37033  33.1%     -    0s
     0     0    9.37050    0   19   14.00000    9.37050  33.1%     -    0s
     0     0    9.40651    0   21   14.00000    9.40651  32.8%     -    0s
     0     0    9.41115    0   23   14.00000    9.41115  32.8%     -    0s
     0     0    9.94783    0   22   14.00000    9.94783  28.9%     -    0s
     0     0    9.94783    0   22   14.00000    9.94783  28.9%     -    0s
     0     0    9.94856    0   22   14.00000    9.94856  28.9%     -    0s
     0     0    9.94856    0   16   14.00000    9.94856  28.9%     -    0s
     0     2    9.94905    0   16   14.00000    9.94905  28.9%     -    0s
  4848  1599   12.52020   24   10   14.00000   11.30792  19.2%  42.4    5s
 10043  2914   12.29996   22    3   14.00000   11.58030  17.3%  40.9   10s
 10333  3027   12.21493   25   32   14.00000   11.58403  17.3%  40.5   15s
 11917  3239   11.93827   26   18   14.00000   11.60032  17.1%  45.4   20s
 14143  3216   13.00000   30    6   14.00000   11.84980  15.4%  47.8   25s
 16187  3031   12.20100   34   16   14.00000   11.98530  14.4%  50.3   30s
 18342  2984   13.00000   34    5   14.00000   12.00650  14.2%  51.4   35s
 20409  3070     cutoff   37        14.00000   12.05235  13.9%  52.5   40s
 22496  3434     cutoff   37        14.00000   12.10286  13.6%  53.4   45s
 24381  3650   12.92096   34    9   14.00000   12.14496  13.3%  54.5   50s
 26432  3728   12.21094   30   11   14.00000   12.18327  13.0%  55.2   55s
 28561  3881     cutoff   36        14.00000   12.21121  12.8%  55.5   60s
 30590  3975     cutoff   38        14.00000   12.24887  12.5%  56.0   65s
 32332  3998   12.84250   32   18   14.00000   12.28625  12.2%  56.5   70s
 33985  3964   13.00000   36    5   14.00000   12.33651  11.9%  57.0   75s
 35909  3900   12.39898   32   14   14.00000   12.38293  11.6%  57.4   80s
 37903  3736   13.00000   31   10   14.00000   12.43636  11.2%  57.5   85s
 39749  3503   12.86163   30   17   14.00000   12.49886  10.7%  57.7   90s
 41802  3275     cutoff   29        14.00000   12.55764  10.3%  57.8   95s
 43715  2938   13.00000   29   14   14.00000   12.65228  9.63%  57.9  100s
 46068  2459     cutoff   40        14.00000   12.79188  8.63%  57.5  105s
 48499  1816     cutoff   36        14.00000   13.00000  7.14%  56.9  110s
 51066  1071   13.00000   39   11   14.00000   13.00000  7.14%  56.2  115s
 53584   559   13.00000   35    3   14.00000   13.00000  7.14%  55.7  120s
 55322   279     cutoff   34        14.00000   13.00000  7.14%  55.9  125s

Cutting planes:
  Gomory: 22
  Cover: 5
  Implied bound: 233
  MIR: 365
  Flow cover: 349
  Flow path: 10
  Zero half: 10
  Network: 23

Explored 56641 nodes (3177852 simplex iterations) in 128.54 seconds
Thread count was 1 (of 8 available processors)

Optimal solution found (tolerance 4.00e-02)
Best objective 1.400000000000e+01, best bound 1.400000000000e+01, gap 0.0%

Gurobi 6.5.2 (linux64) logging started Mon Jul 24 16:45:29 2017

Changed value of parameter LogFile to data/mip_solutions/furman_sahinidis/transshipment/14sp1_gurobi.log
   Prev: gurobi.log  Default: 
Changed value of parameter Threads to 1
   Prev: 0  Min: 0  Max: 1024  Default: 0
Optimize a model with 270 rows, 947 columns and 2676 nonzeros
Coefficient statistics:
  Matrix range    [1e+00, 6e+03]
  Objective range [1e+00, 1e+00]
  Bounds range    [1e+00, 1e+00]
  RHS range       [1e+00, 2e+03]
Presolve removed 135 rows and 577 columns
Presolve time: 0.00s
Presolved: 135 rows, 370 columns, 973 nonzeros
Variable types: 314 continuous, 56 integer (56 binary)

Root relaxation: objective 9.058930e+00, 344 iterations, 0.00 seconds

    Nodes    |    Current Node    |     Objective Bounds      |     Work
 Expl Unexpl |  Obj  Depth IntInf | Incumbent    BestBd   Gap | It/Node Time

     0     0    9.05893    0    9          -    9.05893      -     -    0s
H    0     0                      14.0000000    9.05893  35.3%     -    0s
     0     0    9.22069    0   17   14.00000    9.22069  34.1%     -    0s
     0     0    9.30113    0   18   14.00000    9.30113  33.6%     -    0s
     0     0    9.37033    0   18   14.00000    9.37033  33.1%     -    0s
     0     0    9.37050    0   19   14.00000    9.37050  33.1%     -    0s
     0     0    9.40651    0   21   14.00000    9.40651  32.8%     -    0s
     0     0    9.41115    0   23   14.00000    9.41115  32.8%     -    0s
     0     0    9.94783    0   22   14.00000    9.94783  28.9%     -    0s
     0     0    9.94783    0   22   14.00000    9.94783  28.9%     -    0s
     0     0    9.94856    0   22   14.00000    9.94856  28.9%     -    0s
     0     0    9.94856    0   16   14.00000    9.94856  28.9%     -    0s
     0     2    9.94905    0   16   14.00000    9.94905  28.9%     -    0s

Cutting planes:
  Gomory: 10
  Cover: 2
  Implied bound: 127
  MIR: 15
  Flow cover: 66
  Flow path: 2
  Zero half: 1
  Network: 4

Explored 1697 nodes (77951 simplex iterations) in 2.00 seconds
Thread count was 1 (of 8 available processors)

Time limit reached
Best objective 1.400000000000e+01, best bound 1.200000000000e+01, gap 14.2857%

Gurobi 6.5.2 (linux64) logging started Mon Jul 24 16:58:15 2017

Changed value of parameter LogFile to data/mip_solutions/furman_sahinidis/transshipment/14sp1_gurobi.log
   Prev: gurobi.log  Default: 
Changed value of parameter Threads to 1
   Prev: 0  Min: 0  Max: 1024  Default: 0
Optimize a model with 270 rows, 947 columns and 2676 nonzeros
Coefficient statistics:
  Matrix range    [1e+00, 6e+03]
  Objective range [1e+00, 1e+00]
  Bounds range    [1e+00, 1e+00]
  RHS range       [1e+00, 2e+03]
Presolve removed 135 rows and 577 columns
Presolve time: 0.00s
Presolved: 135 rows, 370 columns, 973 nonzeros
Variable types: 314 continuous, 56 integer (56 binary)

Root relaxation: objective 9.058930e+00, 344 iterations, 0.00 seconds

    Nodes    |    Current Node    |     Objective Bounds      |     Work
 Expl Unexpl |  Obj  Depth IntInf | Incumbent    BestBd   Gap | It/Node Time

     0     0    9.05893    0    9          -    9.05893      -     -    0s
H    0     0                      14.0000000    9.05893  35.3%     -    0s
     0     0    9.22069    0   17   14.00000    9.22069  34.1%     -    0s
     0     0    9.30113    0   18   14.00000    9.30113  33.6%     -    0s
     0     0    9.37033    0   18   14.00000    9.37033  33.1%     -    0s
     0     0    9.37050    0   19   14.00000    9.37050  33.1%     -    0s
     0     0    9.40651    0   21   14.00000    9.40651  32.8%     -    0s
     0     0    9.41115    0   23   14.00000    9.41115  32.8%     -    0s
     0     0    9.94783    0   22   14.00000    9.94783  28.9%     -    0s
     0     0    9.94783    0   22   14.00000    9.94783  28.9%     -    0s
     0     0    9.94856    0   22   14.00000    9.94856  28.9%     -    0s
     0     0    9.94856    0   16   14.00000    9.94856  28.9%     -    0s
     0     2    9.94905    0   16   14.00000    9.94905  28.9%     -    0s

Cutting planes:
  Gomory: 11
  Cover: 4
  Implied bound: 149
  MIR: 17
  Flow cover: 69
  Flow path: 2
  Zero half: 1
  Network: 6

Explored 2807 nodes (124885 simplex iterations) in 3.00 seconds
Thread count was 1 (of 8 available processors)

Time limit reached
Best objective 1.400000000000e+01, best bound 1.200000000000e+01, gap 14.2857%

Gurobi 6.5.2 (linux64) logging started Wed Jul 26 13:57:44 2017

Changed value of parameter LogFile to data/mip_solutions/furman_sahinidis/transshipment/14sp1_gurobi.log
   Prev: gurobi.log  Default: 
Changed value of parameter Threads to 1
   Prev: 0  Min: 0  Max: 1024  Default: 0
Optimize a model with 270 rows, 947 columns and 2676 nonzeros
Coefficient statistics:
  Matrix range    [1e+00, 6e+03]
  Objective range [1e+00, 1e+00]
  Bounds range    [1e+00, 1e+00]
  RHS range       [1e+00, 2e+03]
Presolve removed 135 rows and 577 columns
Presolve time: 0.00s
Presolved: 135 rows, 370 columns, 973 nonzeros
Variable types: 314 continuous, 56 integer (56 binary)

Root relaxation: objective 9.058930e+00, 344 iterations, 0.00 seconds

    Nodes    |    Current Node    |     Objective Bounds      |     Work
 Expl Unexpl |  Obj  Depth IntInf | Incumbent    BestBd   Gap | It/Node Time

     0     0    9.05893    0    9          -    9.05893      -     -    0s
H    0     0                      14.0000000    9.05893  35.3%     -    0s
     0     0    9.22069    0   17   14.00000    9.22069  34.1%     -    0s
     0     0    9.30113    0   18   14.00000    9.30113  33.6%     -    0s
     0     0    9.37033    0   18   14.00000    9.37033  33.1%     -    0s
     0     0    9.37050    0   19   14.00000    9.37050  33.1%     -    0s
     0     0    9.40651    0   21   14.00000    9.40651  32.8%     -    0s
     0     0    9.41115    0   23   14.00000    9.41115  32.8%     -    0s
     0     0    9.94783    0   22   14.00000    9.94783  28.9%     -    0s
     0     0    9.94783    0   22   14.00000    9.94783  28.9%     -    0s
     0     0    9.94856    0   22   14.00000    9.94856  28.9%     -    0s
     0     0    9.94856    0   16   14.00000    9.94856  28.9%     -    0s
     0     2    9.94905    0   16   14.00000    9.94905  28.9%     -    0s
  4918  1618   13.00000   26    2   14.00000   11.31248  19.2%  42.3    5s
 10138  2927   12.65559   21   13   14.00000   11.58332  17.3%  40.9   10s
 10340  3031   12.42454   22   32   14.00000   11.58403  17.3%  40.5   15s
 12087  3242   11.65377   25   23   14.00000   11.65059  16.8%  45.5   20s
 14359  3201   12.08530   34   16   14.00000   11.86237  15.3%  48.0   25s
 16401  3021     cutoff   42        14.00000   11.99453  14.3%  50.6   30s
 18624  2954   13.00000   35    4   14.00000   12.01142  14.2%  51.5   35s
 20739  3142   12.19206   33    8   14.00000   12.05942  13.9%  52.5   40s
 22792  3466     cutoff   31        14.00000   12.11086  13.5%  53.6   45s
 24698  3665     cutoff   34        14.00000   12.15125  13.2%  54.7   50s
 26912  3788     cutoff   30        14.00000   12.18343  13.0%  55.1   55s
 28913  3897   13.00000   37    8   14.00000   12.21760  12.7%  55.6   60s
 30859  3985     cutoff   34        14.00000   12.25468  12.5%  56.1   65s
 32628  4025   12.96808   34   15   14.00000   12.29348  12.2%  56.5   70s
 34428  3912   12.84772   35   10   14.00000   12.34817  11.8%  57.1   75s
 36348  3883     cutoff   41        14.00000   12.39487  11.5%  57.5   80s
 38402  3693     cutoff   39        14.00000   12.45149  11.1%  57.5   85s
 40268  3486   13.00000   34    3   14.00000   12.50240  10.7%  57.7   90s
 42263  3203   13.00000   37    4   14.00000   12.57837  10.2%  57.8   95s
 44258  2838     cutoff   44        14.00000   12.67882  9.44%  57.9  100s
 46843  2214     cutoff   35        14.00000   12.88092  7.99%  57.3  105s
 49342  1515   13.00000   42    5   14.00000   13.00000  7.14%  56.6  110s
 51964   843   13.00000   33    3   14.00000   13.00000  7.14%  56.0  115s
 54237   454     cutoff   40        14.00000   13.00000  7.14%  55.7  120s
 55932   180     cutoff   30        14.00000   13.00000  7.14%  56.1  125s

Cutting planes:
  Gomory: 22
  Cover: 5
  Implied bound: 233
  MIR: 365
  Flow cover: 349
  Flow path: 10
  Zero half: 10
  Network: 23

Explored 56641 nodes (3177852 simplex iterations) in 126.61 seconds
Thread count was 1 (of 8 available processors)

Optimal solution found (tolerance 4.00e-02)
Best objective 1.400000000000e+01, best bound 1.400000000000e+01, gap 0.0%
